# Instance created by Brandimarte (1993)
277 247 15
0 1
1 2
2 3
3 4
4 5
5 6
6 7
8 9
9 10
10 11
11 12
12 13
13 14
14 15
15 16
16 17
17 18
19 20
20 21
21 22
22 23
23 24
24 25
25 26
27 28
28 29
29 30
30 31
31 32
32 33
33 34
34 35
35 36
37 38
38 39
39 40
40 41
41 42
42 43
43 44
44 45
46 47
47 48
48 49
49 50
50 51
51 52
52 53
54 55
55 56
56 57
57 58
58 59
59 60
60 61
62 63
63 64
64 65
65 66
66 67
67 68
68 69
69 70
70 71
71 72
73 74
74 75
75 76
76 77
77 78
78 79
79 80
80 81
81 82
82 83
84 85
85 86
86 87
87 88
88 89
89 90
90 91
91 92
92 93
94 95
95 96
96 97
97 98
98 99
99 100
100 101
101 102
102 103
104 105
105 106
106 107
107 108
108 109
109 110
110 111
112 113
113 114
114 115
115 116
116 117
117 118
118 119
119 120
120 121
121 122
123 124
124 125
125 126
126 127
127 128
128 129
129 130
130 131
132 133
133 134
134 135
135 136
136 137
137 138
138 139
139 140
140 141
142 143
143 144
144 145
145 146
146 147
147 148
148 149
149 150
151 152
152 153
153 154
154 155
155 156
156 157
157 158
159 160
160 161
161 162
162 163
163 164
164 165
165 166
166 167
168 169
169 170
170 171
171 172
172 173
173 174
174 175
175 176
176 177
178 179
179 180
180 181
181 182
182 183
183 184
184 185
186 187
187 188
188 189
189 190
190 191
191 192
192 193
194 195
195 196
196 197
197 198
198 199
199 200
200 201
202 203
203 204
204 205
205 206
206 207
207 208
208 209
210 211
211 212
212 213
213 214
214 215
215 216
216 217
217 218
218 219
219 220
221 222
222 223
223 224
224 225
225 226
226 227
227 228
228 229
230 231
231 232
232 233
233 234
234 235
235 236
236 237
238 239
239 240
240 241
241 242
242 243
243 244
244 245
245 246
246 247
248 249
249 250
250 251
251 252
252 253
253 254
254 255
256 257
257 258
258 259
259 260
260 261
261 262
262 263
263 264
264 265
266 267
267 268
268 269
269 270
270 271
271 272
272 273
273 274
274 275
275 276
1 8 20
2 4 28 9 19
1 11 17
1 11 17
2 12 27 13 25
2 8 28 4 25
1 8 20
2 12 15 1 21
2 4 29 9 28
1 13 14
2 12 27 13 25
2 8 28 4 25
1 13 18
2 4 22 14 27
2 13 20 9 18
1 13 16
1 8 20
1 6 17
2 13 27 7 23
2 12 17 2 19
2 13 20 9 18
1 11 17
2 4 28 0 11
1 0 25
2 3 16 12 10
2 10 25 5 23
1 13 16
2 4 29 9 28
1 6 17
2 4 12 8 17
1 3 16
2 11 19 13 13
1 1 20
2 13 20 9 18
1 13 16
2 4 28 0 11
2 3 16 12 10
2 4 22 14 27
2 4 28 0 11
1 8 20
2 13 27 7 23
2 8 28 4 25
1 11 17
1 10 11
2 4 28 9 19
1 6 17
1 13 20
1 10 11
2 4 29 9 28
1 10 27
2 10 25 5 23
1 11 17
2 13 27 7 23
2 12 27 13 25
2 13 27 7 23
1 1 20
2 11 19 13 13
2 4 28 0 11
2 3 16 12 10
2 4 12 8 17
2 11 13 3 10
2 10 25 5 23
1 13 16
1 13 18
2 4 12 8 17
2 12 27 13 25
1 11 17
2 4 22 14 27
2 10 25 5 23
1 0 25
2 4 28 0 11
1 11 17
2 4 29 9 28
1 10 11
1 11 17
1 13 14
2 8 14 5 19
1 13 20
1 6 17
1 0 25
1 8 20
2 4 28 0 11
1 1 20
2 3 16 12 10
2 10 25 5 23
2 13 20 9 18
1 13 14
1 11 17
1 13 18
2 12 27 13 25
1 13 20
1 3 16
2 11 13 3 10
1 0 25
2 4 29 9 28
1 8 20
2 12 17 2 19
2 13 27 7 23
2 3 16 12 10
1 13 14
2 8 14 5 19
1 11 17
1 13 20
1 13 16
2 4 29 9 28
2 10 25 5 23
1 11 17
1 8 20
2 12 27 13 25
2 12 15 1 21
2 4 28 9 19
2 11 13 3 10
2 13 20 9 18
2 11 19 13 13
2 12 17 2 19
2 3 16 12 10
1 13 16
1 13 18
2 12 15 1 21
2 10 25 5 23
1 13 14
1 8 20
1 11 17
1 10 27
2 3 16 12 10
2 4 28 0 11
1 13 18
1 1 20
2 12 15 1 21
1 13 14
1 3 16
2 13 20 9 18
2 4 12 8 17
1 11 17
1 10 11
1 13 18
2 4 29 9 28
1 1 20
2 3 16 12 10
2 4 22 14 27
1 8 20
2 4 28 0 11
1 8 20
1 13 18
2 4 28 9 19
1 8 20
2 12 15 1 21
2 8 28 4 25
2 4 28 0 11
2 4 22 14 27
2 10 25 5 23
2 4 22 14 27
2 13 27 7 23
1 13 18
1 1 20
2 12 15 1 21
1 10 27
1 6 17
2 3 16 12 10
1 10 11
2 12 17 2 19
1 8 20
1 13 14
2 8 28 4 25
2 11 19 13 13
2 4 28 9 19
2 4 12 8 17
1 11 17
1 8 20
2 11 13 3 10
2 4 29 9 28
1 11 17
2 4 22 14 27
2 12 15 1 21
1 10 27
2 8 14 5 19
2 10 25 5 23
2 11 19 13 13
2 8 28 4 25
2 12 27 13 25
2 13 27 7 23
2 4 28 0 11
1 11 17
2 10 25 5 23
1 8 20
1 13 20
1 13 14
2 13 20 9 18
2 4 22 14 27
2 8 14 5 19
2 3 16 12 10
2 11 19 13 13
1 8 20
2 12 27 13 25
2 4 29 9 28
2 12 17 2 19
1 11 17
2 8 28 4 25
1 13 14
1 13 18
2 10 25 5 23
2 13 20 9 18
2 3 16 12 10
1 11 17
1 6 17
2 8 14 5 19
2 4 12 8 17
1 1 20
1 13 20
2 4 29 9 28
2 13 27 7 23
1 3 16
1 8 20
1 1 20
2 10 25 5 23
2 4 28 0 11
2 3 16 12 10
1 0 25
2 4 28 9 19
1 13 14
2 12 27 13 25
2 10 25 5 23
2 8 14 5 19
2 4 28 0 11
1 13 18
2 13 27 7 23
2 12 27 13 25
2 3 16 12 10
2 11 19 13 13
1 10 27
1 13 14
2 13 27 7 23
2 8 14 5 19
2 4 22 14 27
2 11 19 13 13
1 10 27
1 13 18
2 4 28 0 11
1 13 20
1 11 17
2 3 16 12 10
1 6 17
1 8 20
2 4 22 14 27
2 4 28 9 19
1 10 11
2 11 19 13 13
2 8 14 5 19
2 13 20 9 18
1 3 16
1 13 20
2 8 14 5 19
1 6 17
1 13 16
1 8 20
2 4 29 9 28
2 11 13 3 10
2 8 28 4 25
1 11 17
2 4 28 0 11
2 13 27 7 23
1 8 20
1 13 20
2 13 20 9 18
2 12 27 13 25
1 3 16
1 3 16
1 6 17
2 12 15 1 21
2 3 16 12 10
2 4 28 0 11
2 4 28 9 19
1 13 14
2 12 27 13 25
1 13 20
1 13 16
1 11 17
